column=9;
row=9;
Board=[|0,0,0,0,0,0,0,0,0|0,7,3,2,0,0,0,0,0|5,1,0,0,0,3,8,2,0|1,0,2,0,0,0,3,0,0|6,0,0,9,2,1,4,0,0|4,0,7,0,5,0,0,1,0|0,2,4,0,0,0,0,0,3|0,6,8,5,0,0,1,0,0|3,5,0,4,0,7,0,0,0|];
horizontal=[|0,0,0,1,0,0,0,0|1,0,1,1,0,0,1,0|0,0,0,0,1,0,0,0|0,0,0,1,0,1,0,0|0,0,0,0,1,0,0,1|0,0,0,0,0,0,0,1|0,0,0,0,0,1,0,0|1,0,0,0,1,1,0,0|0,0,0,0,0,0,0,0|];
vertical=[|0,0,0,0,0,0,0,0,0|0,0,0,0,0,0,0,0,0|0,0,0,1,0,1,0,0,0|0,0,0,0,0,0,1,0,0|0,0,0,0,0,0,0,0,0|0,0,0,0,0,0,1,0,1|0,0,0,0,0,0,0,1,0|0,1,0,1,0,0,1,0,0|];
